c --- [ banner ] -------------------------------------------------------------
c 
c CaDiCaL Radically Simplified CDCL SAT Solver
c Copyright (c) 2016-2021 A. Biere, M. Fleury, N. Froleyks
c 
c Version 1.5.2 9c38a080b32c28d805e8e6ca21849856b0cda605
c g++ (Ubuntu 7.5.0-3ubuntu1~18.04) 7.5.0 -Wall -Wextra -O3 -DNDEBUG
c Wed Feb 16 23:15:36 EST 2022 Linux fac-vanhoeve01 5.4.0-99-generic x86_64
c 
c --- [ limit ] --------------------------------------------------------------
c 
c setting time limit to 600 seconds real time (due to '-t 600')
c setting conflict limit to 1000000000 conflicts (due to '1000000000')
c 
c --- [ parsing input ] ------------------------------------------------------
c 
c reading DIMACS file from 'ddfwcnfs/r125.1.col_5.cnf'
c opening file to read 'ddfwcnfs/r125.1.col_5.cnf'
c found 'p cnf 625 1062' header
c parsed 1062 clauses in 0.00 seconds process time
c closing file 'ddfwcnfs/r125.1.col_5.cnf'
c after reading 13382 bytes 0.0 MB
c 
c --- [ options ] ------------------------------------------------------------
c 
c all options are set to their default value
c 
c --- [ solving ] ------------------------------------------------------------
c 
c time measured in process time since initialization
c 
c  seconds  reductions  redundant irredundant
c         MB    restarts       trail    variables
c          level   conflicts       glue     remaining
c 
c *  0.00  3  0 0   0    0    0  0% 0 1035 583 93%
c l  0.00  3  0 0   0    0    0  0% 0 1035 583 93%
c 1  0.00  3  0 0   0    0    0  0% 0 1035 583 93%
c 
c --- [ result ] -------------------------------------------------------------
c 
s SATISFIABLE
v -1 -2 -3 -4 5 -6 -7 -8 -9 10 -11 -12 -13 -14 15 -16 -17 -18 -19 20 -21 -22
v -23 -24 -25 -26 -27 -28 -29 30 -31 -32 -33 -34 35 -36 -37 -38 -39 40 -41 -42
v -43 -44 45 46 -47 -48 -49 -50 -51 -52 -53 -54 55 -56 -57 -58 -59 60 -61 -62
v -63 -64 65 -66 -67 -68 -69 70 -71 -72 -73 -74 75 -76 -77 -78 -79 80 -81 -82
v -83 -84 85 -86 -87 88 -89 -90 -91 -92 -93 94 -95 -96 -97 -98 -99 100 -101
v -102 -103 104 -105 -106 -107 108 -109 -110 -111 -112 -113 -114 -115 -116
v -117 -118 119 -120 -121 -122 -123 124 -125 -126 -127 -128 -129 130 -131 -132
v -133 134 -135 -136 -137 -138 -139 140 -141 -142 -143 144 -145 -146 -147 -148
v 149 -150 -151 -152 -153 -154 155 -156 -157 -158 -159 160 -161 -162 -163 -164
v 165 -166 -167 -168 169 -170 -171 -172 -173 -174 175 -176 -177 178 -179 -180
v -181 182 -183 -184 -185 -186 -187 -188 -189 190 -191 -192 -193 194 -195 -196
v -197 -198 199 -200 -201 -202 -203 204 -205 -206 -207 -208 -209 210 -211 -212
v -213 214 -215 -216 -217 -218 219 -220 -221 -222 223 -224 -225 -226 -227 -228
v 229 -230 -231 -232 -233 -234 235 -236 -237 -238 -239 240 -241 -242 -243 244
v -245 -246 -247 -248 -249 250 -251 -252 -253 254 -255 -256 -257 -258 259 -260
v -261 -262 -263 -264 265 -266 267 -268 -269 -270 -271 272 -273 -274 -275 -276
v -277 278 -279 -280 -281 -282 -283 -284 285 -286 -287 -288 289 -290 -291 -292
v 293 -294 -295 -296 -297 -298 -299 300 -301 -302 -303 -304 305 -306 307 -308
v -309 -310 -311 -312 -313 314 -315 -316 -317 -318 319 -320 -321 -322 323 -324
v -325 -326 -327 328 -329 -330 -331 -332 -333 -334 335 -336 -337 338 -339 -340
v -341 -342 -343 344 -345 -346 -347 -348 -349 350 -351 -352 -353 -354 355 -356
v -357 358 -359 -360 -361 -362 363 -364 -365 -366 -367 -368 369 -370 -371 -372
v 373 -374 -375 -376 -377 378 -379 -380 -381 -382 383 -384 -385 -386 -387 -388
v 389 -390 -391 392 -393 -394 -395 396 -397 -398 -399 -400 -401 402 -403 -404
v -405 -406 -407 -408 409 -410 -411 -412 413 -414 -415 -416 -417 418 -419 -420
v -421 -422 -423 424 -425 -426 427 -428 -429 -430 -431 -432 -433 -434 435 -436
v -437 -438 439 -440 441 -442 -443 -444 -445 -446 -447 -448 449 -450 -451 -452
v 453 -454 -455 -456 -457 -458 459 -460 -461 -462 -463 -464 465 -466 -467 -468
v 469 -470 -471 -472 -473 474 -475 -476 -477 478 -479 -480 -481 -482 483 -484
v -485 -486 -487 488 -489 -490 -491 -492 493 -494 -495 -496 -497 -498 499 -500
v -501 502 -503 -504 -505 -506 -507 -508 509 -510 -511 -512 -513 514 -515 -516
v -517 518 -519 -520 -521 -522 -523 -524 -525 -526 -527 -528 529 -530 -531
v -532 533 -534 -535 -536 537 -538 -539 -540 541 -542 -543 -544 -545 -546 -547
v -548 549 -550 -551 552 -553 -554 -555 -556 -557 -558 559 -560 -561 -562 -563
v -564 565 -566 -567 -568 -569 570 -571 -572 573 -574 -575 -576 -577 578 -579
v -580 581 -582 -583 -584 -585 -586 -587 -588 589 -590 -591 -592 -593 -594 595
v -596 -597 -598 599 -600 -601 602 -603 -604 -605 -606 -607 608 -609 -610 -611
v -612 613 -614 -615 616 -617 -618 -619 -620 621 -622 -623 -624 -625 0
c 
c --- [ run-time profiling ] -------------------------------------------------
c 
c process time taken by individual solving procedures
c (percentage relative to process time for solving)
c 
c         0.00  283.63% parse
c         0.00   48.04% search
c         0.00   47.33% lucky
c         0.00    0.00% simplify
c   =================================
c         0.00   17.88% solve
c 
c last line shows process time for solving
c (percentage relative to total process time)
c 
c --- [ statistics ] ---------------------------------------------------------
c 
c fixed:                        27         4.32 %  of all variables
c lucky:                         1       100.00 %  of tried
c minimized:                     0         0.00 %  learned literals
c shrunken:                      0         0.00 %  learned literals
c minishrunken:                  0         0.00 %  learned literals
c propagations:                 27         0.10 M  per second
c 
c seconds are measured in process time for solving
c 
c --- [ resources ] ----------------------------------------------------------
c 
c total process time since initialization:         0.00    seconds
c total real time since initialization:            0.00    seconds
c maximum resident set size of process:            3.45    MB
c 
c --- [ shutting down ] ------------------------------------------------------
c 
c exit 10
